************************************************************************
file with basedata            : md76_.bas
initial value random generator: 1290885398
************************************************************************
projects                      :  1
jobs (incl. supersource/sink ):  14
horizon                       :  99
RESOURCES
  - renewable                 :  2   R
  - nonrenewable              :  2   N
  - doubly constrained        :  0   D
************************************************************************
PROJECT INFORMATION:
pronr.  #jobs rel.date duedate tardcost  MPM-Time
    1     12      0       19        0       19
************************************************************************
PRECEDENCE RELATIONS:
jobnr.    #modes  #successors   successors
   1        1          3           2   3   4
   2        3          3           6   7   8
   3        3          3           5   8   9
   4        3          3           6   7  12
   5        3          3          11  12  13
   6        3          2           9  13
   7        3          2           9  13
   8        3          2          10  12
   9        3          1          10
  10        3          1          11
  11        3          1          14
  12        3          1          14
  13        3          1          14
  14        1          0        
************************************************************************
REQUESTS/DURATIONS:
jobnr. mode duration  R 1  R 2  N 1  N 2
------------------------------------------------------------------------
  1      1     0       0    0    0    0
  2      1     3       8    0    0    2
         2     3       0    5    0    2
         3    10       8    0    1    0
  3      1     2       4    0    5    0
         2     6       4    0    0    9
         3     7       0    8    0    6
  4      1     2       0    7    0    4
         2     8       0    3    8    0
         3     9       6    0    7    0
  5      1     2       0    3    0    3
         2     3       6    0    3    0
         3     4       5    0    0    3
  6      1     3       5    0    5    0
         2     8       4    0    0    6
         3     9       0   10    0    5
  7      1     4       9    0    6    0
         2     6       8    0    4    0
         3    10       0    8    4    0
  8      1     2       0    7    0    5
         2     7       0    4    7    0
         3     9       0    2    0    3
  9      1     3       7    0    0    6
         2     5       0    7    0    5
         3     7       6    0    6    0
 10      1     2       2    0    0   10
         2     3       1    0    0   10
         3     4       0    7    3    0
 11      1     7       0   10    0   10
         2     9       7    0    3    0
         3    10       0    3    0    9
 12      1     1       0    3    0    8
         2     8       9    0    5    0
         3    10       7    0    0    8
 13      1     5       7    0    6    0
         2     7       6    0    0    6
         3    10       0    5    0    5
 14      1     0       0    0    0    0
************************************************************************
RESOURCEAVAILABILITIES:
  R 1  R 2  N 1  N 2
   23   28   31   35
************************************************************************
